maximize
OBJ:100x0 + 100x1 + 100x2 + 100x3 + 100x4 + 100x5 + 100x6 + 100x7 + 100x8 + 100x9 + 100x10 + 100x11 + 100x12 + 100x13 + 100x14 + 100x15 + 100x16 + 100x17 + 100x18 + 100x19 + 100x20 + 100x21 + 100x22 + 100x23 + 100x24 + 100x25 + 100x26 + 100x27 + 100x28 + 100x29 + 100x30 + 100x31 + 100x32 + 100x33 + 100x34 + 100x35 + 100x36 + 100x37 + 100x38 + 100x39 + 100x40 + 100x41 + 100x42 + 100x43 + 100x44 + 100x45 + 100x46 + 100x47 + 100x48 + 100x49 + 100x50 + 100x51 + 100x52 + 100x53 + 100x54 + 100x55 + 100x56 + 100x57 + 100x58 + 100x59 + 100x60 + 100x61 + 100x62 + 100x63 + 100x64 - y55_57 - y15_30 - y26_39 - y17_58 - y29_32 - y8_9 - y48_54 - y0_14 - y6_48 - y29_50 - y40_50 - y11_23 - y10_36 - y25_34 - y33_47 - y44_47 - y25_43 - y22_28 - y2_59 - y14_24 - y25_61 - y22_46 - y3_42 - y47_48 - y17_53 - y7_30 - y17_62 - y0_9 - y6_43 - y21_41 - y6_52 - y29_54 - y21_50 - y21_59 - y33_42 - y10_58 - y43_55 - y22_32 - y3_28 - y43_64 - y24_60 - y3_37 - y36_43 - y55_56 - y36_52 - y9_53 - y6_29 - y29_31 - y40_49 - y6_56 - y21_54 - y10_17 - y2_13 - y10_26 - y2_22 - y33_37 - y32_41 - y2_49 - y32_50 - y51_63 - y14_23 - y1_62 - y24_64 - y36_38 - y9_30 - y55_60 - y17_43 - y6_24 - y9_57 - y6_51 - y10_21 - y31_53 - y54_55 - y25_28 - y2_35 - y32_36 - y3_9 - y43_45 - y51_58 - y13_41 - y3_18 - y14_18 - y32_54 - y24_50 - y17_29 - y9_25 - y47_51 - y5_45 - y50_53 - y5_63 - y6_28 - y27_60 - y10_16 - y20_48 - y10_25 - y12_44 - y2_21 - y20_57 - y12_53 - y23_62 - y4_58 - y35_36 - y32_49 - y16_32 - y43_58 - y1_52 - y35_54 - y16_50 - y57_60 - y9_20 - y17_33 - y17_42 - y9_47 - y6_32 - y11_56 - y31_34 - y39_56 - y31_52 - y54_63 - y13_22 - y4_53 - y1_29 - y43_44 - y24_40 - y13_49 - y24_49 - y35_49 - y35_58 - y38_51 - y46_64 - y49_60 - y17_37 - y28_37 - y27_41 - y27_50 - y19_46 - y27_59 - y8_55 - y30_55 - y42_57 - y20_38 - y23_34 - y2_11 - y4_30 - y20_47 - y20_56 - y4_39 - y12_52 - y23_52 - y1_24 - y53_62 - y4_57 - y13_35 - y1_51 - y5_12 - y46_50 - y49_55 - y15_62 - y26_62 - y5_39 - y7_58 - y38_64 - y0_37 - y19_59 - y42_61 - y12_20 - y20_33 - y0_64 - y11_64 - y4_25 - y4_34 - y23_47 - y53_57 - y16_17 - y1_28 - y34_62 - y1_46 - y5_16 - y38_50 - y7_44 - y26_57 - y7_53 - y7_62 - y19_36 - y30_36 - y27_49 - y19_45 - y8_54 - y8_63 - y60_64 - y4_11 - y11_59 - y23_24 - y23_33 - y4_29 - y23_42 - y34_39 - y1_14 - y34_48 - y45_48 - y56_57 - y15_34 - y46_49 - y15_43 - y57_58 - y49_63 - y7_57 - y0_18 - y8_40 - y19_40 - y30_40 - y8_49 - y19_49 - y11_45 - y41_46 - y30_58 - y20_23 - y11_54 - y23_28 - y41_64 - y33_60 - y1_9 - y34_52 - y45_61 - y3_64 - y15_29 - y26_38 - y7_34 - y7_43 - y26_56 - y0_4 - y8_17 - y48_62 - y8_35 - y19_35 - y30_35 - y12_14 - y60_63 - y52_59 - y33_55 - y25_51 - y10_62 - y33_64 - y34_38 - y34_56 - y22_63 - y3_59 - y18_20 - y7_29 - y8_12 - y18_56 - y11_26 - y29_62 - y33_41 - y41_54 - y25_37 - y4_14 - y44_50 - y41_63 - y2_53 - y22_31 - y22_40 - y3_36 - y14_36 - y37_38 - y37_47 - y3_54 - y37_56 - y7_15 - y3_63 - y15_28 - y18_42 - y0_3 - y11_12 - y21_53 - y33_45 - y44_45 - y52_58 - y44_54 - y25_50 - y22_26 - y25_59 - y3_22 - y14_22 - y22_35 - y34_37 - y14_31 - y14_49 - y15_23 - y36_55 - y17_51 - y28_60 - y8_11 - y6_41 - y40_43 - y40_61 - y21_57 - y10_29 - y2_25 - y25_27 - y10_38 - y33_49 - y25_45 - y51_57 - y25_54 - y14_17 - y2_61 - y14_26 - y32_62 - y43_62 - y3_35 - y14_35 - y14_44 - y36_41 - y7_14 - y59_61 - y9_51 - y17_64 - y28_64 - y9_60 - y21_25 - y48_51 - y21_34 - y6_45 - y21_43 - y10_15 - y21_61 - y54_58 - y10_33 - y25_31 - y10_51 - y22_25 - y32_57 - y14_30 - y13_62 - y35_62 - y28_32 - y36_45 - y47_54 - y9_37 - y6_22 - y58_60 - y9_55 - y21_29 - y6_40 - y29_42 - y21_38 - y6_49 - y21_47 - y6_58 - y10_28 - y54_62 - y32_34 - y3_16 - y14_16 - y32_52 - y43_52 - y3_25 - y43_61 - y17_18 - y17_27 - y5_34 - y36_49 - y17_45 - y28_45 - y5_52 - y17_54 - y21_24 - y21_42 - y31_46 - y10_23 - y54_57 - y12_60 - y4_56 - y24_34 - y3_11 - y43_47 - y51_60 - y35_43 - y32_56 - y13_61 - y5_29 - y17_31 - y17_40 - y28_40 - y9_36 - y5_47 - y9_45 - y21_28 - y8_58 - y11_63 - y39_45 - y20_41 - y10_18 - y12_46 - y23_46 - y20_59 - y4_42 - y23_55 - y23_64 - y1_27 - y24_29 - y51_55 - y35_47 - y35_56 - y5_15 - y46_53 - y16_61 - y5_24 - y9_22 - y49_58 - y5_33 - y17_35 - y28_35 - y5_42 - y27_48 - y27_57 - y8_53 - y39_40 - y20_36 - y31_36 - y12_32 - y2_9 - y23_50 - y20_63 - y1_22 - y1_31 - y4_64 - y5_10 - y49_53 - y9_26 - y38_62 - y49_62 - y27_34 - y8_39 - y27_52 - y19_48 - y30_48 - y30_57 - y11_62 - y23_27 - y39_44 - y39_53 - y12_36 - y31_58 - y4_41 - y23_54 - y53_55 - y1_26 - y24_28 - y16_24 - y34_60 - y13_37 - y24_37 - y35_37 - y1_44 - y15_46 - y38_48 - y5_23 - y57_61 - y9_21 - y15_55 - y7_51 - y26_64 - y8_25 - y8_34 - y11_39 - y19_52 - y42_54 - y30_61 - y20_35 - y1_3 - y1_12 - y37_51 - y16_28 - y46_47 - y38_43 - y5_18 - y9_16 - y26_50 - y18_46 - y26_59 - y18_55 - y27_33 - y19_29 - y19_38 - y30_38 - y27_51 - y30_47 - y0_43 - y11_43 - y0_61 - y41_62 - y52_62 - y4_22 - y23_35 - y4_31 - y23_44 - y25_63 - y4_40 - y13_18 - y53_63 - y16_23 - y22_57 - y34_59 - y15_27 - y15_36 - y26_36 - y46_51 - y26_45 - y38_47 - y7_41 - y15_54 - y26_54 - y7_50 - y8_15 - y18_50 - y27_28 - y0_11 - y8_24 - y0_20 - y19_33 - y30_51 - y4_8 - y12_21 - y12_30 - y23_30 - y25_49 - y4_26 - y33_62 - y1_2 - y22_43 - y1_20 - y34_54 - y37_50 - y3_57 - y37_59 - y7_18 - y15_31 - y7_27 - y18_27 - y15_40 - y38_42 - y7_36 - y18_45 - y26_58 - y18_54 - y48_55 - y27_32 - y18_63 - y19_28 - y19_37 - y21_56 - y11_33 - y0_42 - y41_43 - y25_44 - y4_21 - y1_6 - y2_60 - y25_62 - y3_43 - y14_52 - y15_17 - y37_54 - y14_61 - y55_62 - y18_22 - y59_60 - y26_35 - y26_44 - y18_40 - y0_1 - y48_50 - y40_46 - y0_19 - y6_53 - y29_55 - y6_62 - y11_28 - y33_34 - y25_30 - y4_7 - y10_41 - y33_43 - y41_56 - y4_16 - y44_52 - y25_48 - y22_42 - y3_38
 Subject to
C1: x0+x1-y0_1 <=1 
C2: x0+x3-y0_3 <=1 
C3: x0+x4-y0_4 <=1 
C4: x0+x6 <=1 
C5: x0+x9-y0_9 <=1 
C6: x0+x11-y0_11 <=1 
C7: x0+x14-y0_14 <=1 
C8: x0+x15 <=1 
C9: x0+x16 <=1 
C10: x0+x18-y0_18 <=1 
C11: x0+x19-y0_19 <=1 
C12: x0+x20-y0_20 <=1 
C13: x0+x21 <=1 
C14: x0+x23 <=1 
C15: x0+x24 <=1 
C16: x0+x25 <=1 
C17: x0+x34 <=1 
C18: x0+x36 <=1 
C19: x0+x37-y0_37 <=1 
C20: x0+x38 <=1 
C21: x0+x39 <=1 
C22: x0+x42-y0_42 <=1 
C23: x0+x43-y0_43 <=1 
C24: x0+x45 <=1 
C25: x0+x50 <=1 
C26: x0+x51 <=1 
C27: x0+x54 <=1 
C28: x0+x61-y0_61 <=1 
C29: x0+x63 <=1 
C30: x0+x64-y0_64 <=1 
C31: x1+x2-y1_2 <=1 
C32: x1+x3-y1_3 <=1 
C33: x1+x4 <=1 
C34: x1+x5 <=1 
C35: x1+x6-y1_6 <=1 
C36: x1+x9-y1_9 <=1 
C37: x1+x10 <=1 
C38: x1+x11 <=1 
C39: x1+x12-y1_12 <=1 
C40: x1+x14-y1_14 <=1 
C41: x1+x15 <=1 
C42: x1+x16 <=1 
C43: x1+x19 <=1 
C44: x1+x20-y1_20 <=1 
C45: x1+x22-y1_22 <=1 
C46: x1+x23 <=1 
C47: x1+x24-y1_24 <=1 
C48: x1+x26-y1_26 <=1 
C49: x1+x27-y1_27 <=1 
C50: x1+x28-y1_28 <=1 
C51: x1+x29-y1_29 <=1 
C52: x1+x30 <=1 
C53: x1+x31-y1_31 <=1 
C54: x1+x36 <=1 
C55: x1+x37 <=1 
C56: x1+x41 <=1 
C57: x1+x42 <=1 
C58: x1+x43 <=1 
C59: x1+x44-y1_44 <=1 
C60: x1+x45 <=1 
C61: x1+x46-y1_46 <=1 
C62: x1+x50 <=1 
C63: x1+x51-y1_51 <=1 
C64: x1+x52-y1_52 <=1 
C65: x1+x53 <=1 
C66: x1+x55 <=1 
C67: x1+x58 <=1 
C68: x1+x60 <=1 
C69: x1+x61 <=1 
C70: x1+x62-y1_62 <=1 
C71: x1+x63 <=1 
C72: x2+x4 <=1 
C73: x2+x5 <=1 
C74: x2+x6 <=1 
C75: x2+x8 <=1 
C76: x2+x9-y2_9 <=1 
C77: x2+x10 <=1 
C78: x2+x11-y2_11 <=1 
C79: x2+x12 <=1 
C80: x2+x13-y2_13 <=1 
C81: x2+x16 <=1 
C82: x2+x17 <=1 
C83: x2+x18 <=1 
C84: x2+x21-y2_21 <=1 
C85: x2+x22-y2_22 <=1 
C86: x2+x24 <=1 
C87: x2+x25-y2_25 <=1 
C88: x2+x27 <=1 
C89: x2+x30 <=1 
C90: x2+x31 <=1 
C91: x2+x32 <=1 
C92: x2+x35-y2_35 <=1 
C93: x2+x36 <=1 
C94: x2+x44 <=1 
C95: x2+x48 <=1 
C96: x2+x49-y2_49 <=1 
C97: x2+x51 <=1 
C98: x2+x53-y2_53 <=1 
C99: x2+x54 <=1 
C100: x2+x57 <=1 
C101: x2+x58 <=1 
C102: x2+x59-y2_59 <=1 
C103: x2+x60-y2_60 <=1 
C104: x2+x61-y2_61 <=1 
C105: x2+x62 <=1 
C106: x3+x4 <=1 
C107: x3+x6 <=1 
C108: x3+x9-y3_9 <=1 
C109: x3+x11-y3_11 <=1 
C110: x3+x16-y3_16 <=1 
C111: x3+x18-y3_18 <=1 
C112: x3+x19 <=1 
C113: x3+x21 <=1 
C114: x3+x22-y3_22 <=1 
C115: x3+x25-y3_25 <=1 
C116: x3+x26 <=1 
C117: x3+x27 <=1 
C118: x3+x28-y3_28 <=1 
C119: x3+x29 <=1 
C120: x3+x30 <=1 
C121: x3+x31 <=1 
C122: x3+x35-y3_35 <=1 
C123: x3+x36-y3_36 <=1 
C124: x3+x37-y3_37 <=1 
C125: x3+x38-y3_38 <=1 
C126: x3+x40 <=1 
C127: x3+x41 <=1 
C128: x3+x42-y3_42 <=1 
C129: x3+x43-y3_43 <=1 
C130: x3+x44 <=1 
C131: x3+x45 <=1 
C132: x3+x47 <=1 
C133: x3+x52 <=1 
C134: x3+x53 <=1 
C135: x3+x54-y3_54 <=1 
C136: x3+x57-y3_57 <=1 
C137: x3+x58 <=1 
C138: x3+x59-y3_59 <=1 
C139: x3+x63-y3_63 <=1 
C140: x3+x64-y3_64 <=1 
C141: x4+x7-y4_7 <=1 
C142: x4+x8-y4_8 <=1 
C143: x4+x11-y4_11 <=1 
C144: x4+x14-y4_14 <=1 
C145: x4+x16-y4_16 <=1 
C146: x4+x17 <=1 
C147: x4+x19 <=1 
C148: x4+x20 <=1 
C149: x4+x21-y4_21 <=1 
C150: x4+x22-y4_22 <=1 
C151: x4+x23 <=1 
C152: x4+x25-y4_25 <=1 
C153: x4+x26-y4_26 <=1 
C154: x4+x27 <=1 
C155: x4+x28 <=1 
C156: x4+x29-y4_29 <=1 
C157: x4+x30-y4_30 <=1 
C158: x4+x31-y4_31 <=1 
C159: x4+x34-y4_34 <=1 
C160: x4+x39-y4_39 <=1 
C161: x4+x40-y4_40 <=1 
C162: x4+x41-y4_41 <=1 
C163: x4+x42-y4_42 <=1 
C164: x4+x45 <=1 
C165: x4+x46 <=1 
C166: x4+x47 <=1 
C167: x4+x48 <=1 
C168: x4+x49 <=1 
C169: x4+x51 <=1 
C170: x4+x52 <=1 
C171: x4+x53-y4_53 <=1 
C172: x4+x56-y4_56 <=1 
C173: x4+x57-y4_57 <=1 
C174: x4+x58-y4_58 <=1 
C175: x4+x59 <=1 
C176: x4+x61 <=1 
C177: x4+x62 <=1 
C178: x4+x63 <=1 
C179: x4+x64-y4_64 <=1 
C180: x5+x10-y5_10 <=1 
C181: x5+x11 <=1 
C182: x5+x12-y5_12 <=1 
C183: x5+x13 <=1 
C184: x5+x14 <=1 
C185: x5+x15-y5_15 <=1 
C186: x5+x16-y5_16 <=1 
C187: x5+x18-y5_18 <=1 
C188: x5+x20 <=1 
C189: x5+x21 <=1 
C190: x5+x22 <=1 
C191: x5+x23-y5_23 <=1 
C192: x5+x24-y5_24 <=1 
C193: x5+x28 <=1 
C194: x5+x29-y5_29 <=1 
C195: x5+x31 <=1 
C196: x5+x32 <=1 
C197: x5+x33-y5_33 <=1 
C198: x5+x34-y5_34 <=1 
C199: x5+x36 <=1 
C200: x5+x38 <=1 
C201: x5+x39-y5_39 <=1 
C202: x5+x42-y5_42 <=1 
C203: x5+x43 <=1 
C204: x5+x44 <=1 
C205: x5+x45-y5_45 <=1 
C206: x5+x47-y5_47 <=1 
C207: x5+x48 <=1 
C208: x5+x49 <=1 
C209: x5+x52-y5_52 <=1 
C210: x5+x54 <=1 
C211: x5+x56 <=1 
C212: x5+x59 <=1 
C213: x5+x61 <=1 
C214: x5+x63-y5_63 <=1 
C215: x6+x7 <=1 
C216: x6+x9 <=1 
C217: x6+x10 <=1 
C218: x6+x11 <=1 
C219: x6+x13 <=1 
C220: x6+x15 <=1 
C221: x6+x17 <=1 
C222: x6+x18 <=1 
C223: x6+x22-y6_22 <=1 
C224: x6+x23 <=1 
C225: x6+x24-y6_24 <=1 
C226: x6+x25 <=1 
C227: x6+x26 <=1 
C228: x6+x28-y6_28 <=1 
C229: x6+x29-y6_29 <=1 
C230: x6+x31 <=1 
C231: x6+x32-y6_32 <=1 
C232: x6+x34 <=1 
C233: x6+x38 <=1 
C234: x6+x40-y6_40 <=1 
C235: x6+x41-y6_41 <=1 
C236: x6+x43-y6_43 <=1 
C237: x6+x45-y6_45 <=1 
C238: x6+x48-y6_48 <=1 
C239: x6+x49-y6_49 <=1 
C240: x6+x51-y6_51 <=1 
C241: x6+x52-y6_52 <=1 
C242: x6+x53-y6_53 <=1 
C243: x6+x54 <=1 
C244: x6+x55 <=1 
C245: x6+x56-y6_56 <=1 
C246: x6+x57 <=1 
C247: x6+x58-y6_58 <=1 
C248: x6+x59 <=1 
C249: x6+x61 <=1 
C250: x6+x62-y6_62 <=1 
C251: x6+x63 <=1 
C252: x7+x10 <=1 
C253: x7+x11 <=1 
C254: x7+x13 <=1 
C255: x7+x14-y7_14 <=1 
C256: x7+x15-y7_15 <=1 
C257: x7+x18-y7_18 <=1 
C258: x7+x20 <=1 
C259: x7+x21 <=1 
C260: x7+x24 <=1 
C261: x7+x27-y7_27 <=1 
C262: x7+x28 <=1 
C263: x7+x29-y7_29 <=1 
C264: x7+x30-y7_30 <=1 
C265: x7+x31 <=1 
C266: x7+x33 <=1 
C267: x7+x34-y7_34 <=1 
C268: x7+x36-y7_36 <=1 
C269: x7+x40 <=1 
C270: x7+x41-y7_41 <=1 
C271: x7+x43-y7_43 <=1 
C272: x7+x44-y7_44 <=1 
C273: x7+x47 <=1 
C274: x7+x48 <=1 
C275: x7+x49 <=1 
C276: x7+x50-y7_50 <=1 
C277: x7+x51-y7_51 <=1 
C278: x7+x52 <=1 
C279: x7+x53-y7_53 <=1 
C280: x7+x55 <=1 
C281: x7+x57-y7_57 <=1 
C282: x7+x58-y7_58 <=1 
C283: x7+x61 <=1 
C284: x7+x62-y7_62 <=1 
C285: x8+x9-y8_9 <=1 
C286: x8+x11-y8_11 <=1 
C287: x8+x12-y8_12 <=1 
C288: x8+x13 <=1 
C289: x8+x14 <=1 
C290: x8+x15-y8_15 <=1 
C291: x8+x16 <=1 
C292: x8+x17-y8_17 <=1 
C293: x8+x18 <=1 
C294: x8+x21 <=1 
C295: x8+x22 <=1 
C296: x8+x24-y8_24 <=1 
C297: x8+x25-y8_25 <=1 
C298: x8+x26 <=1 
C299: x8+x33 <=1 
C300: x8+x34-y8_34 <=1 
C301: x8+x35-y8_35 <=1 
C302: x8+x37 <=1 
C303: x8+x39-y8_39 <=1 
C304: x8+x40-y8_40 <=1 
C305: x8+x43 <=1 
C306: x8+x44 <=1 
C307: x8+x45 <=1 
C308: x8+x46 <=1 
C309: x8+x47 <=1 
C310: x8+x49-y8_49 <=1 
C311: x8+x51 <=1 
C312: x8+x52 <=1 
C313: x8+x53-y8_53 <=1 
C314: x8+x54-y8_54 <=1 
C315: x8+x55-y8_55 <=1 
C316: x8+x57 <=1 
C317: x8+x58-y8_58 <=1 
C318: x8+x59 <=1 
C319: x8+x60 <=1 
C320: x8+x61 <=1 
C321: x8+x63-y8_63 <=1 
C322: x9+x10 <=1 
C323: x9+x11 <=1 
C324: x9+x15 <=1 
C325: x9+x16-y9_16 <=1 
C326: x9+x17 <=1 
C327: x9+x20-y9_20 <=1 
C328: x9+x21-y9_21 <=1 
C329: x9+x22-y9_22 <=1 
C330: x9+x24 <=1 
C331: x9+x25-y9_25 <=1 
C332: x9+x26-y9_26 <=1 
C333: x9+x27 <=1 
C334: x9+x28 <=1 
C335: x9+x30-y9_30 <=1 
C336: x9+x31 <=1 
C337: x9+x32 <=1 
C338: x9+x34 <=1 
C339: x9+x35 <=1 
C340: x9+x36-y9_36 <=1 
C341: x9+x37-y9_37 <=1 
C342: x9+x38 <=1 
C343: x9+x43 <=1 
C344: x9+x44 <=1 
C345: x9+x45-y9_45 <=1 
C346: x9+x47-y9_47 <=1 
C347: x9+x51-y9_51 <=1 
C348: x9+x53-y9_53 <=1 
C349: x9+x54 <=1 
C350: x9+x55-y9_55 <=1 
C351: x9+x57-y9_57 <=1 
C352: x9+x60-y9_60 <=1 
C353: x9+x61 <=1 
C354: x9+x62 <=1 
C355: x9+x64 <=1 
C356: x10+x11 <=1 
C357: x10+x14 <=1 
C358: x10+x15-y10_15 <=1 
C359: x10+x16-y10_16 <=1 
C360: x10+x17-y10_17 <=1 
C361: x10+x18-y10_18 <=1 
C362: x10+x20 <=1 
C363: x10+x21-y10_21 <=1 
C364: x10+x23-y10_23 <=1 
C365: x10+x25-y10_25 <=1 
C366: x10+x26-y10_26 <=1 
C367: x10+x28-y10_28 <=1 
C368: x10+x29-y10_29 <=1 
C369: x10+x30 <=1 
C370: x10+x32 <=1 
C371: x10+x33-y10_33 <=1 
C372: x10+x34 <=1 
C373: x10+x35 <=1 
C374: x10+x36-y10_36 <=1 
C375: x10+x38-y10_38 <=1 
C376: x10+x40 <=1 
C377: x10+x41-y10_41 <=1 
C378: x10+x44 <=1 
C379: x10+x48 <=1 
C380: x10+x50 <=1 
C381: x10+x51-y10_51 <=1 
C382: x10+x52 <=1 
C383: x10+x53 <=1 
C384: x10+x58-y10_58 <=1 
C385: x10+x62-y10_62 <=1 
C386: x10+x63 <=1 
C387: x10+x64 <=1 
C388: x11+x12-y11_12 <=1 
C389: x11+x22 <=1 
C390: x11+x23-y11_23 <=1 
C391: x11+x25 <=1 
C392: x11+x26-y11_26 <=1 
C393: x11+x27 <=1 
C394: x11+x28-y11_28 <=1 
C395: x11+x29 <=1 
C396: x11+x33-y11_33 <=1 
C397: x11+x34 <=1 
C398: x11+x36 <=1 
C399: x11+x37 <=1 
C400: x11+x39-y11_39 <=1 
C401: x11+x43-y11_43 <=1 
C402: x11+x45-y11_45 <=1 
C403: x11+x46 <=1 
C404: x11+x47 <=1 
C405: x11+x48 <=1 
C406: x11+x51 <=1 
C407: x11+x54-y11_54 <=1 
C408: x11+x55 <=1 
C409: x11+x56-y11_56 <=1 
C410: x11+x57 <=1 
C411: x11+x59-y11_59 <=1 
C412: x11+x61 <=1 
C413: x11+x62-y11_62 <=1 
C414: x11+x63-y11_63 <=1 
C415: x11+x64-y11_64 <=1 
C416: x12+x13 <=1 
C417: x12+x14-y12_14 <=1 
C418: x12+x18 <=1 
C419: x12+x20-y12_20 <=1 
C420: x12+x21-y12_21 <=1 
C421: x12+x22 <=1 
C422: x12+x26 <=1 
C423: x12+x28 <=1 
C424: x12+x30-y12_30 <=1 
C425: x12+x31 <=1 
C426: x12+x32-y12_32 <=1 
C427: x12+x34 <=1 
C428: x12+x35 <=1 
C429: x12+x36-y12_36 <=1 
C430: x12+x41 <=1 
C431: x12+x42 <=1 
C432: x12+x44-y12_44 <=1 
C433: x12+x46-y12_46 <=1 
C434: x12+x47 <=1 
C435: x12+x48 <=1 
C436: x12+x50 <=1 
C437: x12+x52-y12_52 <=1 
C438: x12+x53-y12_53 <=1 
C439: x12+x56 <=1 
C440: x12+x58 <=1 
C441: x12+x59 <=1 
C442: x12+x60-y12_60 <=1 
C443: x12+x63 <=1 
C444: x12+x64 <=1 
C445: x13+x15 <=1 
C446: x13+x16 <=1 
C447: x13+x18-y13_18 <=1 
C448: x13+x19 <=1 
C449: x13+x21 <=1 
C450: x13+x22-y13_22 <=1 
C451: x13+x25 <=1 
C452: x13+x28 <=1 
C453: x13+x30 <=1 
C454: x13+x31 <=1 
C455: x13+x35-y13_35 <=1 
C456: x13+x36 <=1 
C457: x13+x37-y13_37 <=1 
C458: x13+x38 <=1 
C459: x13+x40 <=1 
C460: x13+x41-y13_41 <=1 
C461: x13+x42 <=1 
C462: x13+x43 <=1 
C463: x13+x44 <=1 
C464: x13+x46 <=1 
C465: x13+x48 <=1 
C466: x13+x49-y13_49 <=1 
C467: x13+x52 <=1 
C468: x13+x54 <=1 
C469: x13+x58 <=1 
C470: x13+x59 <=1 
C471: x13+x60 <=1 
C472: x13+x61-y13_61 <=1 
C473: x13+x62-y13_62 <=1 
C474: x13+x64 <=1 
C475: x14+x15 <=1 
C476: x14+x16-y14_16 <=1 
C477: x14+x17-y14_17 <=1 
C478: x14+x18-y14_18 <=1 
C479: x14+x21 <=1 
C480: x14+x22-y14_22 <=1 
C481: x14+x23-y14_23 <=1 
C482: x14+x24-y14_24 <=1 
C483: x14+x26-y14_26 <=1 
C484: x14+x27 <=1 
C485: x14+x30-y14_30 <=1 
C486: x14+x31-y14_31 <=1 
C487: x14+x32 <=1 
C488: x14+x35-y14_35 <=1 
C489: x14+x36-y14_36 <=1 
C490: x14+x39 <=1 
C491: x14+x42 <=1 
C492: x14+x44-y14_44 <=1 
C493: x14+x49-y14_49 <=1 
C494: x14+x52-y14_52 <=1 
C495: x14+x54 <=1 
C496: x14+x55 <=1 
C497: x14+x56 <=1 
C498: x14+x59 <=1 
C499: x14+x61-y14_61 <=1 
C500: x14+x62 <=1 
C501: x14+x64 <=1 
C502: x15+x16 <=1 
C503: x15+x17-y15_17 <=1 
C504: x15+x18 <=1 
C505: x15+x20 <=1 
C506: x15+x23-y15_23 <=1 
C507: x15+x27-y15_27 <=1 
C508: x15+x28-y15_28 <=1 
C509: x15+x29-y15_29 <=1 
C510: x15+x30-y15_30 <=1 
C511: x15+x31-y15_31 <=1 
C512: x15+x33 <=1 
C513: x15+x34-y15_34 <=1 
C514: x15+x35 <=1 
C515: x15+x36-y15_36 <=1 
C516: x15+x39 <=1 
C517: x15+x40-y15_40 <=1 
C518: x15+x43-y15_43 <=1 
C519: x15+x44 <=1 
C520: x15+x45 <=1 
C521: x15+x46-y15_46 <=1 
C522: x15+x47 <=1 
C523: x15+x48 <=1 
C524: x15+x49 <=1 
C525: x15+x50 <=1 
C526: x15+x51 <=1 
C527: x15+x54-y15_54 <=1 
C528: x15+x55-y15_55 <=1 
C529: x15+x58 <=1 
C530: x15+x60 <=1 
C531: x15+x61 <=1 
C532: x15+x62-y15_62 <=1 
C533: x15+x63 <=1 
C534: x16+x17-y16_17 <=1 
C535: x16+x21 <=1 
C536: x16+x22 <=1 
C537: x16+x23-y16_23 <=1 
C538: x16+x24-y16_24 <=1 
C539: x16+x25 <=1 
C540: x16+x27 <=1 
C541: x16+x28-y16_28 <=1 
C542: x16+x30 <=1 
C543: x16+x31 <=1 
C544: x16+x32-y16_32 <=1 
C545: x16+x34 <=1 
C546: x16+x36 <=1 
C547: x16+x37 <=1 
C548: x16+x39 <=1 
C549: x16+x41 <=1 
C550: x16+x43 <=1 
C551: x16+x44 <=1 
C552: x16+x46 <=1 
C553: x16+x47 <=1 
C554: x16+x48 <=1 
C555: x16+x49 <=1 
C556: x16+x50-y16_50 <=1 
C557: x16+x52 <=1 
C558: x16+x53 <=1 
C559: x16+x54 <=1 
C560: x16+x55 <=1 
C561: x16+x56 <=1 
C562: x16+x59 <=1 
C563: x16+x61-y16_61 <=1 
C564: x16+x62 <=1 
C565: x16+x64 <=1 
C566: x17+x18-y17_18 <=1 
C567: x17+x20 <=1 
C568: x17+x21 <=1 
C569: x17+x27-y17_27 <=1 
C570: x17+x28 <=1 
C571: x17+x29-y17_29 <=1 
C572: x17+x31-y17_31 <=1 
C573: x17+x33-y17_33 <=1 
C574: x17+x35-y17_35 <=1 
C575: x17+x36 <=1 
C576: x17+x37-y17_37 <=1 
C577: x17+x38 <=1 
C578: x17+x39 <=1 
C579: x17+x40-y17_40 <=1 
C580: x17+x41 <=1 
C581: x17+x42-y17_42 <=1 
C582: x17+x43-y17_43 <=1 
C583: x17+x44 <=1 
C584: x17+x45-y17_45 <=1 
C585: x17+x48 <=1 
C586: x17+x50 <=1 
C587: x17+x51-y17_51 <=1 
C588: x17+x53-y17_53 <=1 
C589: x17+x54-y17_54 <=1 
C590: x17+x55 <=1 
C591: x17+x57 <=1 
C592: x17+x58-y17_58 <=1 
C593: x17+x62-y17_62 <=1 
C594: x17+x63 <=1 
C595: x17+x64-y17_64 <=1 
C596: x18+x20-y18_20 <=1 
C597: x18+x22-y18_22 <=1 
C598: x18+x23 <=1 
C599: x18+x24 <=1 
C600: x18+x27-y18_27 <=1 
C601: x18+x28 <=1 
C602: x18+x30 <=1 
C603: x18+x31 <=1 
C604: x18+x32 <=1 
C605: x18+x37 <=1 
C606: x18+x40-y18_40 <=1 
C607: x18+x42-y18_42 <=1 
C608: x18+x44 <=1 
C609: x18+x45-y18_45 <=1 
C610: x18+x46-y18_46 <=1 
C611: x18+x48 <=1 
C612: x18+x50-y18_50 <=1 
C613: x18+x51 <=1 
C614: x18+x54-y18_54 <=1 
C615: x18+x55-y18_55 <=1 
C616: x18+x56-y18_56 <=1 
C617: x18+x57 <=1 
C618: x18+x58 <=1 
C619: x18+x60 <=1 
C620: x18+x61 <=1 
C621: x18+x63-y18_63 <=1 
C622: x18+x64 <=1 
C623: x19+x22 <=1 
C624: x19+x27 <=1 
C625: x19+x28-y19_28 <=1 
C626: x19+x29-y19_29 <=1 
C627: x19+x33-y19_33 <=1 
C628: x19+x35-y19_35 <=1 
C629: x19+x36-y19_36 <=1 
C630: x19+x37-y19_37 <=1 
C631: x19+x38-y19_38 <=1 
C632: x19+x40-y19_40 <=1 
C633: x19+x45-y19_45 <=1 
C634: x19+x46-y19_46 <=1 
C635: x19+x48-y19_48 <=1 
C636: x19+x49-y19_49 <=1 
C637: x19+x51 <=1 
C638: x19+x52-y19_52 <=1 
C639: x19+x53 <=1 
C640: x19+x54 <=1 
C641: x19+x57 <=1 
C642: x19+x59-y19_59 <=1 
C643: x19+x64 <=1 
C644: x20+x22 <=1 
C645: x20+x23-y20_23 <=1 
C646: x20+x25 <=1 
C647: x20+x28 <=1 
C648: x20+x29 <=1 
C649: x20+x31 <=1 
C650: x20+x33-y20_33 <=1 
C651: x20+x35-y20_35 <=1 
C652: x20+x36-y20_36 <=1 
C653: x20+x37 <=1 
C654: x20+x38-y20_38 <=1 
C655: x20+x41-y20_41 <=1 
C656: x20+x42 <=1 
C657: x20+x44 <=1 
C658: x20+x47-y20_47 <=1 
C659: x20+x48-y20_48 <=1 
C660: x20+x51 <=1 
C661: x20+x53 <=1 
C662: x20+x55 <=1 
C663: x20+x56-y20_56 <=1 
C664: x20+x57-y20_57 <=1 
C665: x20+x58 <=1 
C666: x20+x59-y20_59 <=1 
C667: x20+x62 <=1 
C668: x20+x63-y20_63 <=1 
C669: x21+x24-y21_24 <=1 
C670: x21+x25-y21_25 <=1 
C671: x21+x28-y21_28 <=1 
C672: x21+x29-y21_29 <=1 
C673: x21+x34-y21_34 <=1 
C674: x21+x36 <=1 
C675: x21+x38-y21_38 <=1 
C676: x21+x40 <=1 
C677: x21+x41-y21_41 <=1 
C678: x21+x42-y21_42 <=1 
C679: x21+x43-y21_43 <=1 
C680: x21+x44 <=1 
C681: x21+x47-y21_47 <=1 
C682: x21+x49 <=1 
C683: x21+x50-y21_50 <=1 
C684: x21+x53-y21_53 <=1 
C685: x21+x54-y21_54 <=1 
C686: x21+x56-y21_56 <=1 
C687: x21+x57-y21_57 <=1 
C688: x21+x58 <=1 
C689: x21+x59-y21_59 <=1 
C690: x21+x60 <=1 
C691: x21+x61-y21_61 <=1 
C692: x21+x62 <=1 
C693: x22+x24 <=1 
C694: x22+x25-y22_25 <=1 
C695: x22+x26-y22_26 <=1 
C696: x22+x28-y22_28 <=1 
C697: x22+x29 <=1 
C698: x22+x30 <=1 
C699: x22+x31-y22_31 <=1 
C700: x22+x32-y22_32 <=1 
C701: x22+x35-y22_35 <=1 
C702: x22+x38 <=1 
C703: x22+x39 <=1 
C704: x22+x40-y22_40 <=1 
C705: x22+x42-y22_42 <=1 
C706: x22+x43-y22_43 <=1 
C707: x22+x44 <=1 
C708: x22+x45 <=1 
C709: x22+x46-y22_46 <=1 
C710: x22+x51 <=1 
C711: x22+x52 <=1 
C712: x22+x53 <=1 
C713: x22+x54 <=1 
C714: x22+x56 <=1 
C715: x22+x57-y22_57 <=1 
C716: x22+x58 <=1 
C717: x22+x63-y22_63 <=1 
C718: x22+x64 <=1 
C719: x23+x24-y23_24 <=1 
C720: x23+x27-y23_27 <=1 
C721: x23+x28-y23_28 <=1 
C722: x23+x30-y23_30 <=1 
C723: x23+x31 <=1 
C724: x23+x32 <=1 
C725: x23+x33-y23_33 <=1 
C726: x23+x34-y23_34 <=1 
C727: x23+x35-y23_35 <=1 
C728: x23+x41 <=1 
C729: x23+x42-y23_42 <=1 
C730: x23+x43 <=1 
C731: x23+x44-y23_44 <=1 
C732: x23+x45 <=1 
C733: x23+x46-y23_46 <=1 
C734: x23+x47-y23_47 <=1 
C735: x23+x48 <=1 
C736: x23+x50-y23_50 <=1 
C737: x23+x51 <=1 
C738: x23+x52-y23_52 <=1 
C739: x23+x53 <=1 
C740: x23+x54-y23_54 <=1 
C741: x23+x55-y23_55 <=1 
C742: x23+x57 <=1 
C743: x23+x58 <=1 
C744: x23+x60 <=1 
C745: x23+x62-y23_62 <=1 
C746: x23+x64-y23_64 <=1 
C747: x24+x25 <=1 
C748: x24+x26 <=1 
C749: x24+x27 <=1 
C750: x24+x28-y24_28 <=1 
C751: x24+x29-y24_29 <=1 
C752: x24+x30 <=1 
C753: x24+x33 <=1 
C754: x24+x34-y24_34 <=1 
C755: x24+x37-y24_37 <=1 
C756: x24+x38 <=1 
C757: x24+x39 <=1 
C758: x24+x40-y24_40 <=1 
C759: x24+x44 <=1 
C760: x24+x45 <=1 
C761: x24+x49-y24_49 <=1 
C762: x24+x50-y24_50 <=1 
C763: x24+x52 <=1 
C764: x24+x53 <=1 
C765: x24+x56 <=1 
C766: x24+x58 <=1 
C767: x24+x59 <=1 
C768: x24+x60-y24_60 <=1 
C769: x24+x63 <=1 
C770: x24+x64-y24_64 <=1 
C771: x25+x27-y25_27 <=1 
C772: x25+x28-y25_28 <=1 
C773: x25+x29 <=1 
C774: x25+x30-y25_30 <=1 
C775: x25+x31-y25_31 <=1 
C776: x25+x33 <=1 
C777: x25+x34-y25_34 <=1 
C778: x25+x36 <=1 
C779: x25+x37-y25_37 <=1 
C780: x25+x38 <=1 
C781: x25+x39 <=1 
C782: x25+x43-y25_43 <=1 
C783: x25+x44-y25_44 <=1 
C784: x25+x45-y25_45 <=1 
C785: x25+x48-y25_48 <=1 
C786: x25+x49-y25_49 <=1 
C787: x25+x50-y25_50 <=1 
C788: x25+x51-y25_51 <=1 
C789: x25+x52 <=1 
C790: x25+x54-y25_54 <=1 
C791: x25+x58 <=1 
C792: x25+x59-y25_59 <=1 
C793: x25+x61-y25_61 <=1 
C794: x25+x62-y25_62 <=1 
C795: x25+x63-y25_63 <=1 
C796: x25+x64 <=1 
C797: x26+x29 <=1 
C798: x26+x30 <=1 
C799: x26+x33 <=1 
C800: x26+x34 <=1 
C801: x26+x35-y26_35 <=1 
C802: x26+x36-y26_36 <=1 
C803: x26+x37 <=1 
C804: x26+x38-y26_38 <=1 
C805: x26+x39-y26_39 <=1 
C806: x26+x40 <=1 
C807: x26+x44-y26_44 <=1 
C808: x26+x45-y26_45 <=1 
C809: x26+x47 <=1 
C810: x26+x50-y26_50 <=1 
C811: x26+x52 <=1 
C812: x26+x54-y26_54 <=1 
C813: x26+x55 <=1 
C814: x26+x56-y26_56 <=1 
C815: x26+x57-y26_57 <=1 
C816: x26+x58-y26_58 <=1 
C817: x26+x59-y26_59 <=1 
C818: x26+x61 <=1 
C819: x26+x62-y26_62 <=1 
C820: x26+x64-y26_64 <=1 
C821: x27+x28-y27_28 <=1 
C822: x27+x29 <=1 
C823: x27+x30 <=1 
C824: x27+x32-y27_32 <=1 
C825: x27+x33-y27_33 <=1 
C826: x27+x34-y27_34 <=1 
C827: x27+x41-y27_41 <=1 
C828: x27+x43 <=1 
C829: x27+x45 <=1 
C830: x27+x47 <=1 
C831: x27+x48-y27_48 <=1 
C832: x27+x49-y27_49 <=1 
C833: x27+x50-y27_50 <=1 
C834: x27+x51-y27_51 <=1 
C835: x27+x52-y27_52 <=1 
C836: x27+x54 <=1 
C837: x27+x55 <=1 
C838: x27+x57-y27_57 <=1 
C839: x27+x59-y27_59 <=1 
C840: x27+x60-y27_60 <=1 
C841: x27+x61 <=1 
C842: x28+x29 <=1 
C843: x28+x31 <=1 
C844: x28+x32-y28_32 <=1 
C845: x28+x34 <=1 
C846: x28+x35-y28_35 <=1 
C847: x28+x36 <=1 
C848: x28+x37-y28_37 <=1 
C849: x28+x38 <=1 
C850: x28+x39 <=1 
C851: x28+x40-y28_40 <=1 
C852: x28+x42 <=1 
C853: x28+x44 <=1 
C854: x28+x45-y28_45 <=1 
C855: x28+x47 <=1 
C856: x28+x48 <=1 
C857: x28+x52 <=1 
C858: x28+x57 <=1 
C859: x28+x60-y28_60 <=1 
C860: x28+x64-y28_64 <=1 
C861: x29+x31-y29_31 <=1 
C862: x29+x32-y29_32 <=1 
C863: x29+x33 <=1 
C864: x29+x34 <=1 
C865: x29+x38 <=1 
C866: x29+x40 <=1 
C867: x29+x42-y29_42 <=1 
C868: x29+x48 <=1 
C869: x29+x49 <=1 
C870: x29+x50-y29_50 <=1 
C871: x29+x51 <=1 
C872: x29+x52 <=1 
C873: x29+x54-y29_54 <=1 
C874: x29+x55-y29_55 <=1 
C875: x29+x58 <=1 
C876: x29+x62-y29_62 <=1 
C877: x30+x35-y30_35 <=1 
C878: x30+x36-y30_36 <=1 
C879: x30+x37 <=1 
C880: x30+x38-y30_38 <=1 
C881: x30+x39 <=1 
C882: x30+x40-y30_40 <=1 
C883: x30+x42 <=1 
C884: x30+x43 <=1 
C885: x30+x44 <=1 
C886: x30+x45 <=1 
C887: x30+x47-y30_47 <=1 
C888: x30+x48-y30_48 <=1 
C889: x30+x49 <=1 
C890: x30+x50 <=1 
C891: x30+x51-y30_51 <=1 
C892: x30+x53 <=1 
C893: x30+x55-y30_55 <=1 
C894: x30+x57-y30_57 <=1 
C895: x30+x58-y30_58 <=1 
C896: x30+x60 <=1 
C897: x30+x61-y30_61 <=1 
C898: x30+x62 <=1 
C899: x31+x34-y31_34 <=1 
C900: x31+x36-y31_36 <=1 
C901: x31+x37 <=1 
C902: x31+x38 <=1 
C903: x31+x39 <=1 
C904: x31+x40 <=1 
C905: x31+x43 <=1 
C906: x31+x44 <=1 
C907: x31+x46-y31_46 <=1 
C908: x31+x47 <=1 
C909: x31+x49 <=1 
C910: x31+x50 <=1 
C911: x31+x52-y31_52 <=1 
C912: x31+x53-y31_53 <=1 
C913: x31+x58-y31_58 <=1 
C914: x31+x60 <=1 
C915: x31+x61 <=1 
C916: x32+x34-y32_34 <=1 
C917: x32+x35 <=1 
C918: x32+x36-y32_36 <=1 
C919: x32+x41-y32_41 <=1 
C920: x32+x42 <=1 
C921: x32+x44 <=1 
C922: x32+x45 <=1 
C923: x32+x46 <=1 
C924: x32+x49-y32_49 <=1 
C925: x32+x50-y32_50 <=1 
C926: x32+x51 <=1 
C927: x32+x52-y32_52 <=1 
C928: x32+x54-y32_54 <=1 
C929: x32+x56-y32_56 <=1 
C930: x32+x57-y32_57 <=1 
C931: x32+x62-y32_62 <=1 
C932: x33+x34-y33_34 <=1 
C933: x33+x37-y33_37 <=1 
C934: x33+x38 <=1 
C935: x33+x39 <=1 
C936: x33+x40 <=1 
C937: x33+x41-y33_41 <=1 
C938: x33+x42-y33_42 <=1 
C939: x33+x43-y33_43 <=1 
C940: x33+x45-y33_45 <=1 
C941: x33+x47-y33_47 <=1 
C942: x33+x48 <=1 
C943: x33+x49-y33_49 <=1 
C944: x33+x52 <=1 
C945: x33+x53 <=1 
C946: x33+x54 <=1 
C947: x33+x55-y33_55 <=1 
C948: x33+x59 <=1 
C949: x33+x60-y33_60 <=1 
C950: x33+x62-y33_62 <=1 
C951: x33+x63 <=1 
C952: x33+x64-y33_64 <=1 
C953: x34+x36 <=1 
C954: x34+x37-y34_37 <=1 
C955: x34+x38-y34_38 <=1 
C956: x34+x39-y34_39 <=1 
C957: x34+x44 <=1 
C958: x34+x45 <=1 
C959: x34+x46 <=1 
C960: x34+x48-y34_48 <=1 
C961: x34+x49 <=1 
C962: x34+x50 <=1 
C963: x34+x52-y34_52 <=1 
C964: x34+x53 <=1 
C965: x34+x54-y34_54 <=1 
C966: x34+x56-y34_56 <=1 
C967: x34+x57 <=1 
C968: x34+x59-y34_59 <=1 
C969: x34+x60-y34_60 <=1 
C970: x34+x61 <=1 
C971: x34+x62-y34_62 <=1 
C972: x35+x36-y35_36 <=1 
C973: x35+x37-y35_37 <=1 
C974: x35+x41 <=1 
C975: x35+x43-y35_43 <=1 
C976: x35+x45 <=1 
C977: x35+x47-y35_47 <=1 
C978: x35+x48 <=1 
C979: x35+x49-y35_49 <=1 
C980: x35+x50 <=1 
C981: x35+x51 <=1 
C982: x35+x53 <=1 
C983: x35+x54-y35_54 <=1 
C984: x35+x55 <=1 
C985: x35+x56-y35_56 <=1 
C986: x35+x57 <=1 
C987: x35+x58-y35_58 <=1 
C988: x35+x61 <=1 
C989: x35+x62-y35_62 <=1 
C990: x35+x63 <=1 
C991: x36+x37 <=1 
C992: x36+x38-y36_38 <=1 
C993: x36+x41-y36_41 <=1 
C994: x36+x43-y36_43 <=1 
C995: x36+x45-y36_45 <=1 
C996: x36+x49-y36_49 <=1 
C997: x36+x50 <=1 
C998: x36+x51 <=1 
C999: x36+x52-y36_52 <=1 
C1000: x36+x53 <=1 
C1001: x36+x55-y36_55 <=1 
C1002: x36+x56 <=1 
C1003: x36+x57 <=1 
C1004: x36+x59 <=1 
C1005: x36+x62 <=1 
C1006: x36+x64 <=1 
C1007: x37+x38-y37_38 <=1 
C1008: x37+x41 <=1 
C1009: x37+x43 <=1 
C1010: x37+x47-y37_47 <=1 
C1011: x37+x50-y37_50 <=1 
C1012: x37+x51-y37_51 <=1 
C1013: x37+x54-y37_54 <=1 
C1014: x37+x55 <=1 
C1015: x37+x56-y37_56 <=1 
C1016: x37+x58 <=1 
C1017: x37+x59-y37_59 <=1 
C1018: x37+x60 <=1 
C1019: x38+x42-y38_42 <=1 
C1020: x38+x43-y38_43 <=1 
C1021: x38+x45 <=1 
C1022: x38+x46 <=1 
C1023: x38+x47-y38_47 <=1 
C1024: x38+x48-y38_48 <=1 
C1025: x38+x49 <=1 
C1026: x38+x50-y38_50 <=1 
C1027: x38+x51-y38_51 <=1 
C1028: x38+x53 <=1 
C1029: x38+x55 <=1 
C1030: x38+x56 <=1 
C1031: x38+x58 <=1 
C1032: x38+x61 <=1 
C1033: x38+x62-y38_62 <=1 
C1034: x38+x64-y38_64 <=1 
C1035: x39+x40-y39_40 <=1 
C1036: x39+x41 <=1 
C1037: x39+x42 <=1 
C1038: x39+x43 <=1 
C1039: x39+x44-y39_44 <=1 
C1040: x39+x45-y39_45 <=1 
C1041: x39+x48 <=1 
C1042: x39+x49 <=1 
C1043: x39+x50 <=1 
C1044: x39+x51 <=1 
C1045: x39+x53-y39_53 <=1 
C1046: x39+x55 <=1 
C1047: x39+x56-y39_56 <=1 
C1048: x39+x59 <=1 
C1049: x39+x60 <=1 
C1050: x39+x64 <=1 
C1051: x40+x42 <=1 
C1052: x40+x43-y40_43 <=1 
C1053: x40+x45 <=1 
C1054: x40+x46-y40_46 <=1 
C1055: x40+x49-y40_49 <=1 
C1056: x40+x50-y40_50 <=1 
C1057: x40+x51 <=1 
C1058: x40+x54 <=1 
C1059: x40+x57 <=1 
C1060: x40+x59 <=1 
C1061: x40+x60 <=1 
C1062: x40+x61-y40_61 <=1 
C1063: x40+x63 <=1 
C1064: x41+x42 <=1 
C1065: x41+x43-y41_43 <=1 
C1066: x41+x46-y41_46 <=1 
C1067: x41+x49 <=1 
C1068: x41+x51 <=1 
C1069: x41+x54-y41_54 <=1 
C1070: x41+x56-y41_56 <=1 
C1071: x41+x57 <=1 
C1072: x41+x59 <=1 
C1073: x41+x60 <=1 
C1074: x41+x61 <=1 
C1075: x41+x62-y41_62 <=1 
C1076: x41+x63-y41_63 <=1 
C1077: x41+x64-y41_64 <=1 
C1078: x42+x43 <=1 
C1079: x42+x44 <=1 
C1080: x42+x45 <=1 
C1081: x42+x47 <=1 
C1082: x42+x50 <=1 
C1083: x42+x51 <=1 
C1084: x42+x54-y42_54 <=1 
C1085: x42+x57-y42_57 <=1 
C1086: x42+x61-y42_61 <=1 
C1087: x42+x62 <=1 
C1088: x42+x63 <=1 
C1089: x43+x44-y43_44 <=1 
C1090: x43+x45-y43_45 <=1 
C1091: x43+x47-y43_47 <=1 
C1092: x43+x48 <=1 
C1093: x43+x50 <=1 
C1094: x43+x51 <=1 
C1095: x43+x52-y43_52 <=1 
C1096: x43+x54 <=1 
C1097: x43+x55-y43_55 <=1 
C1098: x43+x58-y43_58 <=1 
C1099: x43+x59 <=1 
C1100: x43+x61-y43_61 <=1 
C1101: x43+x62-y43_62 <=1 
C1102: x43+x63 <=1 
C1103: x43+x64-y43_64 <=1 
C1104: x44+x45-y44_45 <=1 
C1105: x44+x46 <=1 
C1106: x44+x47-y44_47 <=1 
C1107: x44+x48 <=1 
C1108: x44+x50-y44_50 <=1 
C1109: x44+x52-y44_52 <=1 
C1110: x44+x53 <=1 
C1111: x44+x54-y44_54 <=1 
C1112: x44+x55 <=1 
C1113: x44+x56 <=1 
C1114: x44+x57 <=1 
C1115: x44+x60 <=1 
C1116: x44+x61 <=1 
C1117: x44+x62 <=1 
C1118: x45+x48-y45_48 <=1 
C1119: x45+x50 <=1 
C1120: x45+x51 <=1 
C1121: x45+x56 <=1 
C1122: x45+x57 <=1 
C1123: x45+x61-y45_61 <=1 
C1124: x45+x64 <=1 
C1125: x46+x47-y46_47 <=1 
C1126: x46+x48 <=1 
C1127: x46+x49-y46_49 <=1 
C1128: x46+x50-y46_50 <=1 
C1129: x46+x51-y46_51 <=1 
C1130: x46+x53-y46_53 <=1 
C1131: x46+x54 <=1 
C1132: x46+x55 <=1 
C1133: x46+x56 <=1 
C1134: x46+x57 <=1 
C1135: x46+x59 <=1 
C1136: x46+x63 <=1 
C1137: x46+x64-y46_64 <=1 
C1138: x47+x48-y47_48 <=1 
C1139: x47+x49 <=1 
C1140: x47+x51-y47_51 <=1 
C1141: x47+x52 <=1 
C1142: x47+x54-y47_54 <=1 
C1143: x47+x55 <=1 
C1144: x47+x56 <=1 
C1145: x47+x60 <=1 
C1146: x47+x62 <=1 
C1147: x47+x63 <=1 
C1148: x48+x49 <=1 
C1149: x48+x50-y48_50 <=1 
C1150: x48+x51-y48_51 <=1 
C1151: x48+x52 <=1 
C1152: x48+x53 <=1 
C1153: x48+x54-y48_54 <=1 
C1154: x48+x55-y48_55 <=1 
C1155: x48+x56 <=1 
C1156: x48+x61 <=1 
C1157: x48+x62-y48_62 <=1 
C1158: x48+x64 <=1 
C1159: x49+x51 <=1 
C1160: x49+x53-y49_53 <=1 
C1161: x49+x55-y49_55 <=1 
C1162: x49+x56 <=1 
C1163: x49+x58-y49_58 <=1 
C1164: x49+x59 <=1 
C1165: x49+x60-y49_60 <=1 
C1166: x49+x62-y49_62 <=1 
C1167: x49+x63-y49_63 <=1 
C1168: x49+x64 <=1 
C1169: x50+x53-y50_53 <=1 
C1170: x50+x56 <=1 
C1171: x50+x57 <=1 
C1172: x50+x58 <=1 
C1173: x50+x59 <=1 
C1174: x50+x60 <=1 
C1175: x51+x52 <=1 
C1176: x51+x54 <=1 
C1177: x51+x55-y51_55 <=1 
C1178: x51+x57-y51_57 <=1 
C1179: x51+x58-y51_58 <=1 
C1180: x51+x60-y51_60 <=1 
C1181: x51+x61 <=1 
C1182: x51+x63-y51_63 <=1 
C1183: x52+x56 <=1 
C1184: x52+x58-y52_58 <=1 
C1185: x52+x59-y52_59 <=1 
C1186: x52+x60 <=1 
C1187: x52+x62-y52_62 <=1 
C1188: x52+x63 <=1 
C1189: x53+x55-y53_55 <=1 
C1190: x53+x57-y53_57 <=1 
C1191: x53+x58 <=1 
C1192: x53+x60 <=1 
C1193: x53+x62-y53_62 <=1 
C1194: x53+x63-y53_63 <=1 
C1195: x54+x55-y54_55 <=1 
C1196: x54+x57-y54_57 <=1 
C1197: x54+x58-y54_58 <=1 
C1198: x54+x60 <=1 
C1199: x54+x62-y54_62 <=1 
C1200: x54+x63-y54_63 <=1 
C1201: x55+x56-y55_56 <=1 
C1202: x55+x57-y55_57 <=1 
C1203: x55+x59 <=1 
C1204: x55+x60-y55_60 <=1 
C1205: x55+x62-y55_62 <=1 
C1206: x56+x57-y56_57 <=1 
C1207: x56+x59 <=1 
C1208: x56+x61 <=1 
C1209: x56+x62 <=1 
C1210: x56+x63 <=1 
C1211: x57+x58-y57_58 <=1 
C1212: x57+x60-y57_60 <=1 
C1213: x57+x61-y57_61 <=1 
C1214: x57+x62 <=1 
C1215: x57+x63 <=1 
C1216: x58+x60-y58_60 <=1 
C1217: x58+x61 <=1 
C1218: x58+x62 <=1 
C1219: x58+x63 <=1 
C1220: x58+x64 <=1 
C1221: x59+x60-y59_60 <=1 
C1222: x59+x61-y59_61 <=1 
C1223: x60+x61 <=1 
C1224: x60+x62 <=1 
C1225: x60+x63-y60_63 <=1 
C1226: x60+x64-y60_64 <=1 
C1227: x61+x62 <=1 
C1228: x63+x64 <=1 

binary
x0
x1
x2
x3
x4
x5
x6
x7
x8
x9
x10
x11
x12
x13
x14
x15
x16
x17
x18
x19
x20
x21
x22
x23
x24
x25
x26
x27
x28
x29
x30
x31
x32
x33
x34
x35
x36
x37
x38
x39
x40
x41
x42
x43
x44
x45
x46
x47
x48
x49
x50
x51
x52
x53
x54
x55
x56
x57
x58
x59
x60
x61
x62
x63
x64
